letting presetvals be [
    [-1,-1,-1,-2,-1, 2,-1],
    [-1,-2,-1, 6,-1,-2,-1],
    [-1,-2,-1,-2,-1,-2,-1],
    [-1,-1,-1,-2,-1,-1,-1],
    [-2, 8,-2,-2,-2, 7,-2],
    [-1,-1,-1,-2,-1,-1,-1],
    [-1,-2,-1, 2,-1,-2, 4],
    [-1,-2,-1,-2, 2,-2,-1],
    [-1, 1,-1,-2,-1, 3,-1]
]
letting op be [2,3,3,3,1,3,1,2,1,2,2,1,1,3,1,3,1,3,1,3]
